networks/zoo_72_1260/zoo_72_1260-lower.txt
Number of groups: 36
Flow 2: {28 3 0} {3 39 1} 
Flow 9: {7 5 0} {5 6 1} {6 10 2} {10 46 3} 
Flow 12: {10 22 0} {22 12 1} {12 13 2} {13 49 3} 
Flow 24: {24 23 0} {23 25 1} {25 61 2} 
Flow 35: {27 36 0} {36 72 1} 
Flow 42: {2 1 0} {1 7 1} {7 8 2} {8 44 3} 
Flow 61: {1 4 0} {4 28 1} {28 29 2} {29 27 3} {27 63 4} 
Flow 97: {3 28 0} {28 64 1} 
Flow 102: {29 30 0} {30 31 1} {31 32 2} {32 33 3} {33 69 4} 
Flow 169: {31 30 0} {30 66 1} 
Flow 252: {8 7 0} {7 43 1} 
Flow 359: {13 18 0} {18 23 1} {23 24 2} {24 9 3} {9 45 4} 
Flow 364: {11 13 0} {13 14 1} {14 15 2} {15 51 3} 
Flow 369: {25 19 0} {19 20 1} {20 56 2} 
Flow 485: {15 34 0} {34 33 1} {33 32 2} {32 31 3} {31 67 4} 
Flow 530: {6 5 0} {5 41 1} 
Flow 556: {16 35 0} {35 32 1} {32 68 2} 
Flow 577: {17 18 0} {18 54 1} 
Flow 667: {5 7 0} {7 1 1} {1 2 2} {2 38 3} 
Flow 677: {23 18 0} {18 13 1} {13 12 2} {12 48 3} 
Flow 706: {21 9 0} {9 6 1} {6 42 2} 
Flow 768: {22 10 1} {10 35 2} {35 34 3} {34 70 4} 
Flow 861: {20 21 0} {21 57 1} 
Flow 894: {26 19 0} {19 55 1} 
Flow 897: {12 22 0} {22 58 1} 
Flow 898: {19 25 0} {25 23 1} {23 59 2} 
Flow 944: {36 35 0} {35 71 1} 
Flow 946: {4 1 0} {1 37 1} 
Flow 1019: {30 29 0} {29 28 1} {28 4 2} {4 40 3} 
Flow 1026: {14 13 0} {13 11 1} {11 47 2} 
Flow 1031: {32 35 0} {35 16 1} {16 52 2} 
Flow 1074: {35 10 0} {10 6 1} {6 9 2} {9 24 3} {24 60 4} 
Flow 1134: {33 34 0} {34 15 1} {15 14 2} {14 50 3} 
Flow 1137: {18 17 0} {17 53 1} 
Flow 1184: {34 35 0} {35 36 1} {36 27 2} {27 29 3} {29 65 4} 
Flow 1251: {9 21 0} {21 20 1} {20 19 2} {19 26 3} {26 62 4} 
Time taken running everything: 3 seconds
