networks/zoo_72_1260/zoo_72_1260-lower.sol
<?xml version = "1.0" encoding="UTF-8" standalone="yes"?>
<CPLEXSolution version="1.2">
 <header
   problemName="networks/zoo_72_1260/zoo_72_1260-lower.lp"
   solutionName="incumbent"
   solutionIndex="-1"
   objectiveValue="36"
   solutionTypeValue="3"
   solutionTypeString="primal"
   solutionStatusValue="101"
   solutionStatusString="integer optimal solution"
   solutionMethodString="mip"
   primalFeasible="1"
   dualFeasible="1"
   MIPNodes="0"
   MIPIterations="0"
   writeLevel="3"/>
 <quality
   epInt="1.0000000000000001e-05"
   epRHS="9.9999999999999995e-07"
   maxIntInfeas="0"
   maxPrimalInfeas="0"
   maxX="1"
   maxSlack="1"/>
 <variables>
  <variable name="Y(1,2)" index="1" value="1"/>
  <variable name="Y(2,3)" index="74" value="1"/>
  <variable name="Y(3,4)" index="147" value="1"/>
  <variable name="Y(4,5)" index="220" value="1"/>
  <variable name="Y(5,6)" index="293" value="1"/>
  <variable name="Y(6,7)" index="366" value="1"/>
  <variable name="Y(7,8)" index="439" value="1"/>
  <variable name="Y(8,9)" index="512" value="1"/>
  <variable name="Y(9,10)" index="585" value="1"/>
  <variable name="Y(10,11)" index="658" value="1"/>
  <variable name="Y(11,12)" index="731" value="1"/>
  <variable name="Y(12,13)" index="804" value="1"/>
  <variable name="Y(13,14)" index="877" value="1"/>
  <variable name="Y(14,15)" index="950" value="1"/>
  <variable name="Y(15,16)" index="1023" value="1"/>
  <variable name="Y(16,17)" index="1096" value="1"/>
  <variable name="Y(17,18)" index="1169" value="1"/>
  <variable name="Y(18,19)" index="1242" value="1"/>
  <variable name="Y(19,20)" index="1315" value="1"/>
  <variable name="Y(20,21)" index="1388" value="1"/>
  <variable name="Y(21,22)" index="1461" value="1"/>
  <variable name="Y(22,23)" index="1534" value="1"/>
  <variable name="Y(23,24)" index="1607" value="1"/>
  <variable name="Y(24,25)" index="1680" value="1"/>
  <variable name="Y(25,26)" index="1753" value="1"/>
  <variable name="Y(26,27)" index="1826" value="1"/>
  <variable name="Y(27,28)" index="1899" value="1"/>
  <variable name="Y(28,29)" index="1972" value="1"/>
  <variable name="Y(29,30)" index="2045" value="1"/>
  <variable name="Y(30,31)" index="2118" value="1"/>
  <variable name="Y(31,32)" index="2191" value="1"/>
  <variable name="Y(32,33)" index="2264" value="1"/>
  <variable name="Y(33,34)" index="2337" value="1"/>
  <variable name="Y(34,35)" index="2410" value="1"/>
  <variable name="Y(35,36)" index="2483" value="1"/>
  <variable name="Y(36,1)" index="2520" value="1"/>
  <variable name="X(1,2,1)" index="90720" value="1"/>
  <variable name="X(1,4,2)" index="91981" value="1"/>
  <variable name="X(1,7,4)" index="93243" value="1"/>
  <variable name="X(1,37,36)" index="94535" value="1"/>
  <variable name="X(2,1,36)" index="95795" value="1"/>
  <variable name="X(2,38,1)" index="97020" value="1"/>
  <variable name="X(3,28,71)" index="98350" value="1"/>
  <variable name="X(3,39,2)" index="99541" value="1"/>
  <variable name="X(4,1,71)" index="100870" value="1"/>
  <variable name="X(4,28,2)" index="102061" value="1"/>
  <variable name="X(4,40,3)" index="103322" value="1"/>
  <variable name="X(5,6,5)" index="104584" value="1"/>
  <variable name="X(5,7,141)" index="105980" value="1"/>
  <variable name="X(5,41,4)" index="107103" value="1"/>
  <variable name="X(6,5,176)" index="108535" value="1"/>
  <variable name="X(6,9,8)" index="109627" value="1"/>
  <variable name="X(6,10,9)" index="110888" value="1"/>
  <variable name="X(6,42,5)" index="112144" value="1"/>
  <variable name="X(7,1,141)" index="113540" value="1"/>
  <variable name="X(7,5,4)" index="114663" value="1"/>
  <variable name="X(7,8,7)" index="115926" value="1"/>
  <variable name="X(7,43,6)" index="117185" value="1"/>
  <variable name="X(8,7,246)" index="118685" value="1"/>
  <variable name="X(8,44,7)" index="119706" value="1"/>
  <variable name="X(9,6,281)" index="121240" value="1"/>
  <variable name="X(9,21,18)" index="122237" value="1"/>
  <variable name="X(9,24,16)" index="123495" value="1"/>
  <variable name="X(9,45,8)" index="124747" value="1"/>
  <variable name="X(10,6,316)" index="126315" value="1"/>
  <variable name="X(10,22,10)" index="127269" value="1"/>
  <variable name="X(10,35,13)" index="128532" value="1"/>
  <variable name="X(10,46,9)" index="129788" value="1"/>
  <variable name="X(11,13,351)" index="131390" value="1"/>
  <variable name="X(11,47,10)" index="132309" value="1"/>
  <variable name="X(12,13,10)" index="133569" value="1"/>
  <variable name="X(12,22,351)" index="135170" value="1"/>
  <variable name="X(12,48,11)" index="136090" value="1"/>
  <variable name="X(13,11,10)" index="137349" value="1"/>
  <variable name="X(13,12,351)" index="138950" value="1"/>
  <variable name="X(13,14,293)" index="140152" value="1"/>
  <variable name="X(13,18,331)" index="141450" value="1"/>
  <variable name="X(13,49,12)" index="142391" value="1"/>
  <variable name="X(14,13,456)" index="144095" value="1"/>
  <variable name="X(14,15,364)" index="145263" value="1"/>
  <variable name="X(14,50,13)" index="146172" value="1"/>
  <variable name="X(15,14,13)" index="147432" value="1"/>
  <variable name="X(15,34,382)" index="149061" value="1"/>
  <variable name="X(15,51,14)" index="149953" value="1"/>
  <variable name="X(16,35,526)" index="151725" value="1"/>
  <variable name="X(16,52,15)" index="152474" value="1"/>
  <variable name="X(17,18,561)" index="154280" value="1"/>
  <variable name="X(17,53,16)" index="154995" value="1"/>
  <variable name="X(18,13,290)" index="156529" value="1"/>
  <variable name="X(18,17,16)" index="157515" value="1"/>
  <variable name="X(18,23,359)" index="159118" value="1"/>
  <variable name="X(18,54,17)" index="160036" value="1"/>
  <variable name="X(19,20,369)" index="161648" value="1"/>
  <variable name="X(19,25,641)" index="163180" value="1"/>
  <variable name="X(19,26,25)" index="163824" value="1"/>
  <variable name="X(19,55,18)" index="165077" value="1"/>
  <variable name="X(20,19,18)" index="166337" value="1"/>
  <variable name="X(20,21,631)" index="168210" value="1"/>
  <variable name="X(20,56,19)" index="168858" value="1"/>
  <variable name="X(21,9,631)" index="170730" value="1"/>
  <variable name="X(21,20,18)" index="171377" value="1"/>
  <variable name="X(21,57,20)" index="172639" value="1"/>
  <variable name="X(22,10,351)" index="174230" value="1"/>
  <variable name="X(22,12,10)" index="175149" value="1"/>
  <variable name="X(22,58,21)" index="176420" value="1"/>
  <variable name="X(23,18,16)" index="177675" value="1"/>
  <variable name="X(23,24,359)" index="179278" value="1"/>
  <variable name="X(23,25,24)" index="180203" value="1"/>
  <variable name="X(23,59,22)" index="181461" value="1"/>
  <variable name="X(24,9,359)" index="183058" value="1"/>
  <variable name="X(24,23,16)" index="183975" value="1"/>
  <variable name="X(24,60,23)" index="185242" value="1"/>
  <variable name="X(25,19,368)" index="186847" value="1"/>
  <variable name="X(25,23,641)" index="188380" value="1"/>
  <variable name="X(25,61,24)" index="189023" value="1"/>
  <variable name="X(26,19,876)" index="191135" value="1"/>
  <variable name="X(26,62,25)" index="191544" value="1"/>
  <variable name="X(27,29,203)" index="192982" value="1"/>
  <variable name="X(27,36,35)" index="194074" value="1"/>
  <variable name="X(27,63,26)" index="195325" value="1"/>
  <variable name="X(28,3,2)" index="196561" value="1"/>
  <variable name="X(28,4,71)" index="197890" value="1"/>
  <variable name="X(28,29,26)" index="199105" value="1"/>
  <variable name="X(28,64,27)" index="200366" value="1"/>
  <variable name="X(29,27,26)" index="201625" value="1"/>
  <variable name="X(29,28,318)" index="203177" value="1"/>
  <variable name="X(29,30,29)" index="204148" value="1"/>
  <variable name="X(29,65,28)" index="205407" value="1"/>
  <variable name="X(30,29,1016)" index="207655" value="1"/>
  <variable name="X(30,31,30)" index="207929" value="1"/>
  <variable name="X(30,66,29)" index="209188" value="1"/>
  <variable name="X(31,30,169)" index="210588" value="1"/>
  <variable name="X(31,32,31)" index="211710" value="1"/>
  <variable name="X(31,67,30)" index="212969" value="1"/>
  <variable name="X(32,31,169)" index="214368" value="1"/>
  <variable name="X(32,33,32)" index="215491" value="1"/>
  <variable name="X(32,35,1021)" index="217740" value="1"/>
  <variable name="X(32,68,31)" index="218010" value="1"/>
  <variable name="X(33,32,484)" index="219723" value="1"/>
  <variable name="X(33,34,1026)" index="221525" value="1"/>
  <variable name="X(33,69,32)" index="221791" value="1"/>
  <variable name="X(34,15,13)" index="223032" value="1"/>
  <variable name="X(34,33,382)" index="224661" value="1"/>
  <variable name="X(34,35,458)" index="225997" value="1"/>
  <variable name="X(34,70,33)" index="226832" value="1"/>
  <variable name="X(35,10,79)" index="228138" value="1"/>
  <variable name="X(35,16,15)" index="229334" value="1"/>
  <variable name="X(35,32,169)" index="230748" value="1"/>
  <variable name="X(35,34,13)" index="231852" value="1"/>
  <variable name="X(35,36,166)" index="233265" value="1"/>
  <variable name="X(35,71,34)" index="234393" value="1"/>
  <variable name="X(36,27,166)" index="235785" value="1"/>
  <variable name="X(36,35,79)" index="236958" value="1"/>
  <variable name="X(36,72,35)" index="238174" value="1"/>
 </variables>
</CPLEXSolution>
